;---
; using 8-bit bit-vectors as characters
; check membership of .Net regex
; regexA = ^\\{2}[\w-]+\\(([\w-][\w-\s]*[\w-]+[$$]?$)|([\w-][$$]?$))
;---
;(set-info :status sat)
;(set-option :print-success true)
(set-logic QF_S)

(declare-const regexA RegLan)
(declare-const x String)

;witness1: "\\x\-\u00B5\u00AA\u00CF"
(define-fun Witness1 () String (str.++ "\u{5c}" (str.++ "\u{5c}" (str.++ "x" (str.++ "\u{5c}" (str.++ "-" (str.++ "\u{b5}" (str.++ "\u{aa}" (str.++ "\u{cf}" "")))))))))
;witness2: "\\\u00AA\u00C3\h\u00EE_-1$"
(define-fun Witness2 () String (str.++ "\u{5c}" (str.++ "\u{5c}" (str.++ "\u{aa}" (str.++ "\u{c3}" (str.++ "\u{5c}" (str.++ "h" (str.++ "\u{ee}" (str.++ "_" (str.++ "-" (str.++ "1" (str.++ "$" ""))))))))))))

(assert (= regexA (re.++ (str.to_re "")(re.++ ((_ re.loop 2 2) (re.range "\u{5c}" "\u{5c}"))(re.++ (re.+ (re.union (re.range "-" "-")(re.union (re.range "0" "9")(re.union (re.range "A" "Z")(re.union (re.range "_" "_")(re.union (re.range "a" "z")(re.union (re.range "\u{aa}" "\u{aa}")(re.union (re.range "\u{b5}" "\u{b5}")(re.union (re.range "\u{ba}" "\u{ba}")(re.union (re.range "\u{c0}" "\u{d6}")(re.union (re.range "\u{d8}" "\u{f6}") (re.range "\u{f8}" "\u{ff}"))))))))))))(re.++ (re.range "\u{5c}" "\u{5c}") (re.union (re.++ (re.union (re.range "-" "-")(re.union (re.range "0" "9")(re.union (re.range "A" "Z")(re.union (re.range "_" "_")(re.union (re.range "a" "z")(re.union (re.range "\u{aa}" "\u{aa}")(re.union (re.range "\u{b5}" "\u{b5}")(re.union (re.range "\u{ba}" "\u{ba}")(re.union (re.range "\u{c0}" "\u{d6}")(re.union (re.range "\u{d8}" "\u{f6}") (re.range "\u{f8}" "\u{ff}")))))))))))(re.++ (re.* (re.union (re.range "\u{09}" "\u{0d}")(re.union (re.range " " " ")(re.union (re.range "-" "-")(re.union (re.range "0" "9")(re.union (re.range "A" "Z")(re.union (re.range "_" "_")(re.union (re.range "a" "z")(re.union (re.range "\u{85}" "\u{85}")(re.union (re.range "\u{a0}" "\u{a0}")(re.union (re.range "\u{aa}" "\u{aa}")(re.union (re.range "\u{b5}" "\u{b5}")(re.union (re.range "\u{ba}" "\u{ba}")(re.union (re.range "\u{c0}" "\u{d6}")(re.union (re.range "\u{d8}" "\u{f6}") (re.range "\u{f8}" "\u{ff}"))))))))))))))))(re.++ (re.+ (re.union (re.range "-" "-")(re.union (re.range "0" "9")(re.union (re.range "A" "Z")(re.union (re.range "_" "_")(re.union (re.range "a" "z")(re.union (re.range "\u{aa}" "\u{aa}")(re.union (re.range "\u{b5}" "\u{b5}")(re.union (re.range "\u{ba}" "\u{ba}")(re.union (re.range "\u{c0}" "\u{d6}")(re.union (re.range "\u{d8}" "\u{f6}") (re.range "\u{f8}" "\u{ff}"))))))))))))(re.++ (re.opt (re.range "$" "$")) (str.to_re ""))))) (re.++ (re.union (re.range "-" "-")(re.union (re.range "0" "9")(re.union (re.range "A" "Z")(re.union (re.range "_" "_")(re.union (re.range "a" "z")(re.union (re.range "\u{aa}" "\u{aa}")(re.union (re.range "\u{b5}" "\u{b5}")(re.union (re.range "\u{ba}" "\u{ba}")(re.union (re.range "\u{c0}" "\u{d6}")(re.union (re.range "\u{d8}" "\u{f6}") (re.range "\u{f8}" "\u{ff}")))))))))))(re.++ (re.opt (re.range "$" "$")) (str.to_re ""))))))))))

;check that the regex contains some x
(assert (str.in_re x regexA))
;check also the concrete witnesses
(assert (str.in_re Witness1 regexA))
(assert (str.in_re Witness2 regexA))
(check-sat)
